10929.0 1143577.0 
10951.0 1143302.0 
10925.0 1147027.0 
10921.0 1148404.0 
11070.0 1137529.0 
11162.0 1136594.0 
10916.0 1149270.0 
10969.0 1142908.0 
10991.0 1141245.0 
10945.0 1143490.0 
10986.0 1142474.0 
10998.0 1137595.0 
11106.0 1137011.0 
